100	5
25	200
10
30
10
10
10
20
20
20
10
10
10
20
30
10
40
40
20
20
10
10
20
20
10
10
40
10
10
20
10
10
20
30
40
20
10
10
20
30
20
10
10
20
10
10
10
30
10
10
10
10
10
10
20
40
10
30
40
30
10
20
10
20
50
10
10
10
10
10
10
30
20
10
10
50
20
10
10
20
10
10
30
20
10
20
30
10
20
30
10
10
10
20
40
10
30
10
30
20
10
20
40	50	0	1236	0	0
45	68	830	1049	90	2
45	70	756	939	90	1
42	66	16	336	90	1
42	68	643	866	90	2
42	65	15	226	90	3
40	69	499	824	90	3
40	66	87	308	90	2
38	68	150	429	90	2
38	70	429	710	90	3
35	66	279	488	90	2
35	69	363	590	90	2
25	85	547	826	90	1
22	75	30	280	90	3
22	85	489	698	90	2
20	80	318	495	90	2
20	85	394	609	90	3
18	75	33	226	90	2
15	75	68	365	90	2
15	80	176	447	90	2
30	50	10	265	90	1
30	52	836	1043	90	1
28	52	704	991	90	2
28	55	664	845	90	1
25	50	15	333	90	3
25	52	88	305	90	2
25	55	502	821	90	2
23	52	179	398	90	1
23	55	476	663	90	3
20	50	288	475	90	3
20	55	368	585	90	2
10	35	144	293	90	1
10	40	31	309	90	1
8	40	33	313	90	2
8	45	655	912	90	1
5	35	191	436	90	1
5	45	588	793	90	2
2	40	305	512	90	3
0	40	414	587	90	2
0	45	481	710	90	3
35	30	180	405	90	2
35	32	63	338	90	2
33	32	19	345	90	1
33	35	16	273	90	3
32	30	278	493	90	1
30	30	453	688	90	3
30	32	355	602	90	3
30	35	837	1127	90	1
28	30	539	786	90	3
28	35	867	1126	90	1
26	32	719	976	90	3
25	30	635	876	90	3
25	35	825	1056	90	1
44	5	193	440	90	3
42	10	78	365	90	1
42	15	35	287	90	1
40	5	308	513	90	2
40	15	35	246	90	3
38	5	376	629	90	3
38	15	519	872	90	1
35	5	463	728	90	3
50	30	412	729	90	2
50	35	181	398	90	3
50	40	100	289	90	2
48	30	539	786	90	2
48	40	12	223	90	1
47	35	753	948	90	3
47	40	12	275	90	1
45	30	669	842	90	1
45	35	836	1049	90	3
95	30	284	559	90	3
95	35	194	459	90	3
53	30	367	588	90	1
92	30	370	659	90	1
53	35	263	502	90	1
45	65	847	1130	90	3
90	35	119	344	90	1
88	30	469	748	90	2
88	35	50	295	90	3
87	30	573	826	90	1
85	25	694	895	90	3
85	35	47	356	90	3
75	55	293	496	90	2
72	55	154	449	90	3
70	58	360	621	90	2
68	60	470	697	90	1
66	55	76	335	90	2
65	55	25	260	90	1
65	60	551	802	90	3
63	58	640	899	90	1
60	55	20	276	90	3
60	60	756	969	90	2
67	85	257	552	90	2
65	85	409	584	90	3
65	82	209	412	90	3
62	80	130	305	90	3
60	80	36	283	90	3
60	85	470	713	90	1
58	75	30	248	90	2
55	80	628	935	90	3
55	85	530	843	90	3
89	35	0	1236	45	4
51	80	0	1236	45	4
51	31	0	1236	45	4
17	57	0	1236	45	4
83	51	0	1236	45	4
0	1	0	0	0	
0	0	0	0	0	
0	0	0	0	0	
0	1	0	0	0	
0	1	0	0	0	
0	1	0	0	0	
0	1	0	0	0	
0	1	0	0	0	
0	1	0	0	0	
0	0	0	1	0	
0	1	0	0	0	
0	0	0	0	0	
0	0	0	1	0	
0	0	0	1	0	
0	0	0	1	0	
0	0	0	1	0	
0	0	0	1	0	
0	0	0	1	0	
0	0	0	1	0	
0	0	0	0	0	
0	0	0	0	0	
0	0	0	1	0	
0	0	0	0	0	
0	0	0	1	0	
0	0	0	1	0	
0	0	0	1	0	
0	0	0	0	0	
0	0	0	1	0	
0	0	0	1	0	
0	0	0	1	0	
0	0	0	0	0	
0	0	0	0	0	
0	0	0	1	0	
0	0	0	0	0	
0	0	0	0	0	
0	0	0	1	0	
0	0	0	1	0	
0	0	0	1	0	
0	0	0	1	0	
0	0	1	0	0	
0	0	1	0	0	
0	0	0	0	0	
0	0	1	0	0	
0	0	0	0	0	
0	0	1	0	0	
0	0	1	0	0	
0	0	0	0	0	
0	0	1	0	0	
0	0	0	0	0	
0	0	1	0	0	
0	0	1	0	0	
0	0	0	0	0	
0	0	1	0	0	
0	0	0	0	0	
0	0	0	0	0	
0	0	1	0	0	
0	0	1	0	0	
0	0	1	0	0	
0	0	0	0	0	
0	0	1	0	0	
0	0	1	0	0	
0	0	1	0	0	
0	0	1	0	0	
0	0	1	0	0	
0	0	0	0	0	
0	0	1	0	0	
0	0	0	0	0	
0	0	0	0	0	
0	0	1	0	0	
1	0	0	0	0	
1	0	0	0	0	
0	0	0	0	0	
0	0	0	0	0	
0	0	0	0	0	
0	1	0	0	0	
0	0	0	0	0	
1	0	0	0	0	
1	0	0	0	0	
0	0	0	0	0	
1	0	0	0	0	
1	0	0	0	0	
0	0	0	0	1	
0	0	0	0	1	
0	0	0	0	1	
0	0	0	0	0	
0	0	0	0	1	
0	0	0	0	0	
0	0	0	0	1	
0	0	0	0	0	
0	0	0	0	1	
0	1	0	0	0	
0	1	0	0	0	
0	1	0	0	0	
0	1	0	0	0	
0	1	0	0	0	
0	1	0	0	0	
0	0	0	0	0	
0	1	0	0	0	
0	1	0	0	0	
0	1	0	0	0	
